     Program PWSCF v.7.0 starts on 11Dec2023 at 14: 6:18

     R & G space division:  proc/nbgrp/npool/nimage =      32

     Waiting for input...
     Reading input from standard input
Warning: card &CELL ignored
Warning: card / ignored

     Current dimensions of program PWSCF are:
     Max number of different atomic species (ntypx) = 10
     Max number of k-points (npk) =  40000
     Max angular momentum in pseudopotentials (lmaxx) =  4
     file K.pbe-spn-kjpaw_psl.1.0.0.UPF: wavefunction(s)  3S renormalized

     Subspace diagonalization in iterative solution of the eigenvalue problem:
     one sub-group per band group will be used

     Using Slab Decomposition

     bravais-lattice index     =            0
     lattice parameter (alat)  =      21.4618  a.u.
     unit-cell volume          =    9885.5542 (a.u.)^3
     number of atoms/cell      =           60
     number of atomic types    =            3
     number of electrons       =       318.00
     number of Kohn-Sham states=          191
     kinetic-energy cutoff     =      80.0000  Ry
     charge density cutoff     =     320.0000  Ry
     scf convergence threshold =      1.0E-06
     mixing beta               =       0.1000
     number of iterations used =            8  plain     mixing
     Exchange-correlation=  SLA  PW   PBX  PBC
                           (   1   4   3   4   0   0   0)

     celldm(1)=  21.461843  celldm(2)=   0.000000  celldm(3)=   0.000000
     celldm(4)=   0.000000  celldm(5)=   0.000000  celldm(6)=   0.000000

     crystal axes: (cart. coord. in units of alat)
               a(1) = (   1.000000   0.000000   0.000000 )
               a(2) = (   0.000000   1.000000   0.000000 )
               a(3) = (   0.000000   0.000000   1.000000 )

     reciprocal axes: (cart. coord. in units 2 pi/alat)
               b(1) = (  1.000000  0.000000  0.000000 )
               b(2) = (  0.000000  1.000000  0.000000 )
               b(3) = (  0.000000  0.000000  1.000000 )

     PseudoPot. # 1 for Cl read from file:
     /ocean/projects/cts180021p/wuziqi/sssp/Cl.pbe-n-rrkjus_psl.1.0.0.UPF
     MD5 check sum: 18cc83b4be324290a879bee3176034ba
     Pseudo is Ultrasoft + core correction, Zval =  7.0
     Generated using "atomic" code by A. Dal Corso  v.5.1
     Using radial grid of 1157 points,  6 beta functions with:
                l(1) =   0
                l(2) =   0
                l(3) =   1
                l(4) =   1
                l(5) =   2
                l(6) =   2
     Q(r) pseudized with 0 coefficients

     PseudoPot. # 2 for K  read from file:
     /ocean/projects/cts180021p/wuziqi/sssp/K.pbe-spn-kjpaw_psl.1.0.0.UPF
     MD5 check sum: 7d58810084cac21f60fbe77ea2b688fd
     Pseudo is Projector augmented-wave + core cor, Zval =  9.0
     Generated using "atomic" code by A. Dal Corso  v.5.1
     Shape of augmentation charge: PSQ
     Using radial grid of 1165 points,  6 beta functions with:
                l(1) =   0
                l(2) =   0
                l(3) =   1
                l(4) =   1
                l(5) =   2
                l(6) =   2
     Q(r) pseudized with 0 coefficients

     PseudoPot. # 3 for Li read from file:
     /ocean/projects/cts180021p/wuziqi/sssp/li_pbe_v1.4.uspp.F.UPF
     MD5 check sum: e912e257baa3777c20ea3d68f190483c
     Pseudo is Ultrasoft, Zval =  3.0
     Generated by new atomic code, or converted to UPF format
     Using radial grid of  751 points,  5 beta functions with:
                l(1) =   0
                l(2) =   0
                l(3) =   0
                l(4) =   1
                l(5) =   1
     Q(r) pseudized with 10 coefficients,  rinner =    1.150   1.150   1.150

     atomic species   valence    mass     pseudopotential
        Cl             7.00    35.45000     Cl( 1.00)
        K              9.00    39.09830     K ( 1.00)
        Li             3.00     6.94000     Li( 1.00)

     No symmetry found

                                    s                        frac. trans.

      isym =  1     identity

 cryst.   s( 1) = (     1          0          0      )
                  (     0          1          0      )
                  (     0          0          1      )

 cart.    s( 1) = (  1.0000000  0.0000000  0.0000000 )
                  (  0.0000000  1.0000000  0.0000000 )
                  (  0.0000000  0.0000000  1.0000000 )

   Cartesian axes

     site n.     atom                  positions (alat units)
         1           Cl  tau(   1) = (   0.3629724   0.9686084   0.6624198  )
         2           Cl  tau(   2) = (   0.0074508   0.4295341   0.3604488  )
         3           Cl  tau(   3) = (   0.7373798   0.2933394   0.2372195  )
         4           Cl  tau(   4) = (   0.5499018   0.1542821   0.6902385  )
         5           Cl  tau(   5) = (   0.4173321   0.8488553   0.1901239  )
         6           Cl  tau(   6) = (   0.2637148   0.4452793   0.0957655  )
         7           Cl  tau(   7) = (   0.1282253   0.5350063   0.6251339  )
         8           Cl  tau(   8) = (   0.5788837   0.6004014   0.2267468  )
         9           Cl  tau(   9) = (   0.0905591   0.1867076   0.1546493  )
        10           Cl  tau(  10) = (   0.5376602   0.3817042   0.0229858  )
        11           Cl  tau(  11) = (   0.7805123   0.3673168   0.7160382  )
        12           Cl  tau(  12) = (   0.8203991   0.6397671   0.0690887  )
        13           Cl  tau(  13) = (   0.2850908   0.3350146   0.7582936  )
        14           Cl  tau(  14) = (   0.3324276   0.1151982   0.9809002  )
        15           Cl  tau(  15) = (   0.5922805   0.7653975   0.9152234  )
        16           Cl  tau(  16) = (   0.0723131   0.1595405   0.6305165  )
        17           Cl  tau(  17) = (   0.3766123   0.1219429   0.3828515  )
        18           Cl  tau(  18) = (   0.5513600   0.3637903   0.4445274  )
        19           Cl  tau(  19) = (   0.1565256   0.9285718   0.3838844  )
        20           Cl  tau(  20) = (   0.7587163   0.9862625   0.6489076  )
        21           Cl  tau(  21) = (   0.0240785   0.9282813   0.0695365  )
        22           Cl  tau(  22) = (   0.4923687   0.6039543   0.6311478  )
        23           Cl  tau(  23) = (   0.2392905   0.5214501   0.3385551  )
        24           Cl  tau(  24) = (   0.2597120   0.6799665   0.8638283  )
        25           Cl  tau(  25) = (   0.6114535   0.8231710   0.4765698  )
        26           Cl  tau(  26) = (   0.8097221   0.1358470   0.9433115  )
        27           Cl  tau(  27) = (   0.1005502   0.9337052   0.7849280  )
        28           Cl  tau(  28) = (   0.0340117   0.3356565   0.9490788  )
        29           Cl  tau(  29) = (   0.9177856   0.7882431   0.7197222  )
        30           Cl  tau(  30) = (   0.7712247   0.9376587   0.1983479  )
        31           K   tau(  31) = (   0.5961231   0.0952654   0.1575708  )
        32           K   tau(  32) = (   0.7005518   0.5901673   0.7996228  )
        33           K   tau(  33) = (   0.8223415   0.2967751   0.4961893  )
        34           Li  tau(  34) = (   0.6312068   0.7605627   0.1125057  )
        35           Li  tau(  35) = (   0.1903529   0.9417090   0.6153647  )
        36           Li  tau(  36) = (   0.9535253   0.7407399   0.0436560  )
        37           Li  tau(  37) = (   0.2560852   0.9764361   0.8835076  )
        38           Li  tau(  38) = (   0.3642112   0.5557519   0.0660770  )
        39           Li  tau(  39) = (   0.2170313   0.3007092   0.9895204  )
        40           Li  tau(  40) = (   0.6690025   0.0063625   0.7859943  )
        41           Li  tau(  41) = (   0.7509027   0.8913969   0.4546778  )
        42           Li  tau(  42) = (   0.7595290   0.4832106   0.1803856  )
        43           Li  tau(  43) = (   0.1988832   0.4718732   0.7855769  )
        44           Li  tau(  44) = (   0.9083026   0.2220150   0.1871311  )
        45           Li  tau(  45) = (   0.2707993   0.6866496   0.3237186  )
        46           Li  tau(  46) = (   0.8943202   0.2360423   0.8154983  )
        47           Li  tau(  47) = (   0.1097523   0.3869406   0.1908917  )
        48           Li  tau(  48) = (   0.3783750   0.1518123   0.7569332  )
        49           Li  tau(  49) = (   0.2088567   0.4028187   0.5115365  )
        50           Li  tau(  50) = (   0.0241243   0.5827420   0.5289960  )
        51           Li  tau(  51) = (   0.2289014   0.0447819   0.2389928  )
        52           Li  tau(  52) = (   0.4478909   0.7007685   0.7959916  )
        53           Li  tau(  53) = (   0.5305897   0.3285182   0.6505938  )
        54           Li  tau(  54) = (   0.3944126   0.3108896   0.3511349  )
        55           Li  tau(  55) = (   0.5842266   0.6626391   0.4243673  )
        56           Li  tau(  56) = (   0.6415025   0.2677678   0.9461379  )
        57           Li  tau(  57) = (   0.9512008   0.9414888   0.6337444  )
        58           Li  tau(  58) = (   0.4809257   0.0208626   0.5375193  )
        59           Li  tau(  59) = (   0.0896284   0.7301342   0.7876232  )
        60           Li  tau(  60) = (   0.8607166   0.9823795   0.0401163  )

   Crystallographic axes

     site n.     atom                  positions (cryst. coord.)
         1           Cl  tau(   1) = (  0.3629724  0.9686084  0.6624198  )
         2           Cl  tau(   2) = (  0.0074508  0.4295341  0.3604488  )
         3           Cl  tau(   3) = (  0.7373798  0.2933394  0.2372195  )
         4           Cl  tau(   4) = (  0.5499018  0.1542821  0.6902385  )
         5           Cl  tau(   5) = (  0.4173321  0.8488553  0.1901239  )
         6           Cl  tau(   6) = (  0.2637148  0.4452793  0.0957655  )
         7           Cl  tau(   7) = (  0.1282253  0.5350063  0.6251339  )
         8           Cl  tau(   8) = (  0.5788837  0.6004014  0.2267468  )
         9           Cl  tau(   9) = (  0.0905591  0.1867076  0.1546493  )
        10           Cl  tau(  10) = (  0.5376602  0.3817042  0.0229858  )
        11           Cl  tau(  11) = (  0.7805123  0.3673168  0.7160382  )
        12           Cl  tau(  12) = (  0.8203991  0.6397671  0.0690887  )
        13           Cl  tau(  13) = (  0.2850908  0.3350146  0.7582936  )
        14           Cl  tau(  14) = (  0.3324276  0.1151982  0.9809002  )
        15           Cl  tau(  15) = (  0.5922805  0.7653975  0.9152234  )
        16           Cl  tau(  16) = (  0.0723131  0.1595405  0.6305165  )
        17           Cl  tau(  17) = (  0.3766123  0.1219429  0.3828515  )
        18           Cl  tau(  18) = (  0.5513600  0.3637903  0.4445274  )
        19           Cl  tau(  19) = (  0.1565256  0.9285718  0.3838844  )
        20           Cl  tau(  20) = (  0.7587163  0.9862625  0.6489076  )
        21           Cl  tau(  21) = (  0.0240785  0.9282813  0.0695365  )
        22           Cl  tau(  22) = (  0.4923687  0.6039543  0.6311478  )
        23           Cl  tau(  23) = (  0.2392905  0.5214501  0.3385551  )
        24           Cl  tau(  24) = (  0.2597120  0.6799665  0.8638283  )
        25           Cl  tau(  25) = (  0.6114535  0.8231710  0.4765698  )
        26           Cl  tau(  26) = (  0.8097221  0.1358470  0.9433115  )
[...]
     atom   25 type  1   force =     0.91977826    0.90054783    0.60265389
     atom   26 type  1   force =     0.20767215    0.41220297    0.03781249
     atom   27 type  1   force =     0.47929998    0.08266092   -1.42641538
     atom   28 type  1   force =     2.53233362   -3.29648562    1.01145242
     atom   29 type  1   force =     1.89287768    4.06118135    1.56441633
     atom   30 type  1   force =    -1.93091218    2.81526025   -4.49964830
     atom   31 type  2   force =     2.90901839    1.24991648   -0.94504295
     atom   32 type  2   force =    -2.70853165    0.33271472    1.28074633
     atom   33 type  2   force =    -1.71070529    0.68118821    1.64466441
     atom   34 type  3   force =    -0.07804501   -0.70827658   -0.75134937
     atom   35 type  3   force =     0.73602873    1.38923639    2.52101951
     atom   36 type  3   force =    -2.24344430    0.80040595   -0.54771380
     atom   37 type  3   force =    -0.71863025    1.57874168   -1.27644282
     atom   38 type  3   force =    -1.25884095   -3.10101166    0.25243772
     atom   39 type  3   force =    -0.77827974    0.55184111    0.43811391
     atom   40 type  3   force =     1.07609634    1.13399186   -2.30147008
     atom   41 type  3   force =    -3.47850769   -0.12029720    1.67978069
     atom   42 type  3   force =    -1.34384421   -0.72008625   -0.63160443
     atom   43 type  3   force =     1.06482049   -1.63473627   -1.19426882
     atom   44 type  3   force =     0.03500139    0.40520166   -0.95891039
     atom   45 type  3   force =     0.50501646   -2.53312420   -0.08761261
     atom   46 type  3   force =    -1.08098068   -0.25955031    1.04825774
     atom   47 type  3   force =     1.19222811   -1.22409937   -0.51800075
     atom   48 type  3   force =     0.83286057   -0.11274096   -0.53485276
     atom   49 type  3   force =    -0.71939288    1.44189600    0.39625437
     atom   50 type  3   force =     3.03646332   -2.69140915    2.21209220
     atom   51 type  3   force =    -0.07043988    0.81851678    0.41074596
     atom   52 type  3   force =     0.66968600   -0.64022230    0.11060937
     atom   53 type  3   force =     0.46527810   -2.03491822   -0.20884576
     atom   54 type  3   force =     1.12461373   -0.81317110    0.92190665
     atom   55 type  3   force =    -0.41780645    1.40082609    0.09777678
     atom   56 type  3   force =    -0.34641107    0.28526159    0.88686299
     atom   57 type  3   force =    -0.48357312   -0.41225959    3.11786463
     atom   58 type  3   force =    -1.01259370    0.81274965    2.00924848
     atom   59 type  3   force =     0.33275611    1.63545217   -0.32546729
     atom   60 type  3   force =     0.42546296    1.00068325    0.54492784
     The core correction contribution to forces
     atom    1 type  1   force =     0.00046418    0.00154882   -0.00428235
     atom    2 type  1   force =     0.00426447   -0.00068287   -0.00129402
     atom    3 type  1   force =    -0.00360076    0.00005209    0.00130771
     atom    4 type  1   force =    -0.00191013    0.00105248   -0.00245812
     atom    5 type  1   force =     0.00097969    0.00134591    0.00009559
     atom    6 type  1   force =     0.00858765    0.00883189   -0.00076476
     atom    7 type  1   force =    -0.00888603    0.00266476   -0.00969246
     atom    8 type  1   force =    -0.00150294   -0.00027986   -0.00176924
     atom    9 type  1   force =    -0.00191208   -0.00105531   -0.00544031
     atom   10 type  1   force =     0.00116796   -0.00245934    0.00094921
     atom   11 type  1   force =     0.00144866    0.00049606   -0.00329522
     atom   12 type  1   force =     0.00219371    0.00424933   -0.00051265
     atom   13 type  1   force =    -0.00744962    0.00594288    0.00159255
     atom   14 type  1   force =    -0.00163376   -0.00087486    0.00205752
     atom   15 type  1   force =     0.00216827   -0.00363688    0.00015129
     atom   16 type  1   force =     0.00373761    0.00008501    0.00227650
     atom   17 type  1   force =    -0.00140185   -0.00151682    0.00081024
     atom   18 type  1   force =     0.00121557    0.00029051   -0.00364038
     atom   19 type  1   force =     0.00086172    0.00388623   -0.00320635
     atom   20 type  1   force =    -0.00562568   -0.00007730    0.00853700
     atom   21 type  1   force =    -0.00229776    0.00590613    0.00138215
     atom   22 type  1   force =    -0.00106727    0.00024848   -0.00153668
     atom   23 type  1   force =    -0.00350966    0.00507999   -0.00496231
     atom   24 type  1   force =    -0.00040419    0.00252118   -0.00055709
     atom   25 type  1   force =     0.00877838   -0.00087872   -0.00138091
     atom   26 type  1   force =     0.00675081    0.00128734   -0.00051228
     atom   27 type  1   force =    -0.00362294    0.00015289    0.00096389
     atom   28 type  1   force =     0.00229357   -0.00337283    0.00344631
     atom   29 type  1   force =     0.00148822    0.01015147    0.00134665
     atom   30 type  1   force =     0.00168026    0.00152746   -0.00209983
     atom   31 type  2   force =     0.00151949   -0.00127671    0.00187728
     atom   32 type  2   force =    -0.00103436    0.00079257    0.00009902
     atom   33 type  2   force =     0.00000108    0.00142572    0.00111337
     atom   34 type  3   force =     0.00000000    0.00000000    0.00000000
     atom   35 type  3   force =     0.00000000    0.00000000    0.00000000
     atom   36 type  3   force =     0.00000000    0.00000000    0.00000000
     atom   37 type  3   force =     0.00000000    0.00000000    0.00000000
     atom   38 type  3   force =     0.00000000    0.00000000    0.00000000
     atom   39 type  3   force =     0.00000000    0.00000000    0.00000000
     atom   40 type  3   force =     0.00000000    0.00000000    0.00000000
     atom   41 type  3   force =     0.00000000    0.00000000    0.00000000
     atom   42 type  3   force =     0.00000000    0.00000000    0.00000000
     atom   43 type  3   force =     0.00000000    0.00000000    0.00000000
     atom   44 type  3   force =     0.00000000    0.00000000    0.00000000
     atom   45 type  3   force =     0.00000000    0.00000000    0.00000000
     atom   46 type  3   force =     0.00000000    0.00000000    0.00000000
     atom   47 type  3   force =     0.00000000    0.00000000    0.00000000
     atom   48 type  3   force =     0.00000000    0.00000000    0.00000000
     atom   49 type  3   force =     0.00000000    0.00000000    0.00000000
     atom   50 type  3   force =     0.00000000    0.00000000    0.00000000
     atom   51 type  3   force =     0.00000000    0.00000000    0.00000000
     atom   52 type  3   force =     0.00000000    0.00000000    0.00000000
     atom   53 type  3   force =     0.00000000    0.00000000    0.00000000
     atom   54 type  3   force =     0.00000000    0.00000000    0.00000000
     atom   55 type  3   force =     0.00000000    0.00000000    0.00000000
     atom   56 type  3   force =     0.00000000    0.00000000    0.00000000
     atom   57 type  3   force =     0.00000000    0.00000000    0.00000000
     atom   58 type  3   force =     0.00000000    0.00000000    0.00000000
     atom   59 type  3   force =     0.00000000    0.00000000    0.00000000
     atom   60 type  3   force =     0.00000000    0.00000000    0.00000000
     The Hubbard contrib.    to forces
     atom    1 type  1   force =     0.00000000    0.00000000    0.00000000
     atom    2 type  1   force =     0.00000000    0.00000000    0.00000000
     atom    3 type  1   force =     0.00000000    0.00000000    0.00000000
     atom    4 type  1   force =     0.00000000    0.00000000    0.00000000
     atom    5 type  1   force =     0.00000000    0.00000000    0.00000000
     atom    6 type  1   force =     0.00000000    0.00000000    0.00000000
     atom    7 type  1   force =     0.00000000    0.00000000    0.00000000
     atom    8 type  1   force =     0.00000000    0.00000000    0.00000000
     atom    9 type  1   force =     0.00000000    0.00000000    0.00000000
     atom   10 type  1   force =     0.00000000    0.00000000    0.00000000
     atom   11 type  1   force =     0.00000000    0.00000000    0.00000000
     atom   12 type  1   force =     0.00000000    0.00000000    0.00000000
     atom   13 type  1   force =     0.00000000    0.00000000    0.00000000
     atom   14 type  1   force =     0.00000000    0.00000000    0.00000000
     atom   15 type  1   force =     0.00000000    0.00000000    0.00000000
     atom   16 type  1   force =     0.00000000    0.00000000    0.00000000
     atom   17 type  1   force =     0.00000000    0.00000000    0.00000000
     atom   18 type  1   force =     0.00000000    0.00000000    0.00000000
     atom   19 type  1   force =     0.00000000    0.00000000    0.00000000
     atom   20 type  1   force =     0.00000000    0.00000000    0.00000000
     atom   21 type  1   force =     0.00000000    0.00000000    0.00000000
     atom   22 type  1   force =     0.00000000    0.00000000    0.00000000
     atom   23 type  1   force =     0.00000000    0.00000000    0.00000000
     atom   24 type  1   force =     0.00000000    0.00000000    0.00000000
     atom   25 type  1   force =     0.00000000    0.00000000    0.00000000
     atom   26 type  1   force =     0.00000000    0.00000000    0.00000000
     atom   27 type  1   force =     0.00000000    0.00000000    0.00000000
     atom   28 type  1   force =     0.00000000    0.00000000    0.00000000
     atom   29 type  1   force =     0.00000000    0.00000000    0.00000000
     atom   30 type  1   force =     0.00000000    0.00000000    0.00000000
     atom   31 type  2   force =     0.00000000    0.00000000    0.00000000
     atom   32 type  2   force =     0.00000000    0.00000000    0.00000000
     atom   33 type  2   force =     0.00000000    0.00000000    0.00000000
     atom   34 type  3   force =     0.00000000    0.00000000    0.00000000
     atom   35 type  3   force =     0.00000000    0.00000000    0.00000000
     atom   36 type  3   force =     0.00000000    0.00000000    0.00000000
     atom   37 type  3   force =     0.00000000    0.00000000    0.00000000
     atom   38 type  3   force =     0.00000000    0.00000000    0.00000000
     atom   39 type  3   force =     0.00000000    0.00000000    0.00000000
     atom   40 type  3   force =     0.00000000    0.00000000    0.00000000
     atom   41 type  3   force =     0.00000000    0.00000000    0.00000000
     atom   42 type  3   force =     0.00000000    0.00000000    0.00000000
     atom   43 type  3   force =     0.00000000    0.00000000    0.00000000
     atom   44 type  3   force =     0.00000000    0.00000000    0.00000000
     atom   45 type  3   force =     0.00000000    0.00000000    0.00000000
     atom   46 type  3   force =     0.00000000    0.00000000    0.00000000
     atom   47 type  3   force =     0.00000000    0.00000000    0.00000000
     atom   48 type  3   force =     0.00000000    0.00000000    0.00000000
     atom   49 type  3   force =     0.00000000    0.00000000    0.00000000
     atom   50 type  3   force =     0.00000000    0.00000000    0.00000000
     atom   51 type  3   force =     0.00000000    0.00000000    0.00000000
     atom   52 type  3   force =     0.00000000    0.00000000    0.00000000
     atom   53 type  3   force =     0.00000000    0.00000000    0.00000000
     atom   54 type  3   force =     0.00000000    0.00000000    0.00000000
     atom   55 type  3   force =     0.00000000    0.00000000    0.00000000
     atom   56 type  3   force =     0.00000000    0.00000000    0.00000000
     atom   57 type  3   force =     0.00000000    0.00000000    0.00000000
     atom   58 type  3   force =     0.00000000    0.00000000    0.00000000
     atom   59 type  3   force =     0.00000000    0.00000000    0.00000000
     atom   60 type  3   force =     0.00000000    0.00000000    0.00000000
     The SCF correction term to forces
     atom    1 type  1   force =     0.00025935   -0.00013146   -0.00004683
     atom    2 type  1   force =    -0.00031260   -0.00011371    0.00021312
     atom    3 type  1   force =    -0.00016271   -0.00018324    0.00022845
     atom    4 type  1   force =     0.00031745    0.00013152   -0.00004815
     atom    5 type  1   force =     0.00016842    0.00017747   -0.00001028
     atom    6 type  1   force =     0.00019227    0.00001765    0.00002516
     atom    7 type  1   force =    -0.00038575   -0.00006150   -0.00004161
     atom    8 type  1   force =     0.00013421   -0.00017092    0.00006120
     atom    9 type  1   force =    -0.00009568   -0.00007626    0.00023846
     atom   10 type  1   force =     0.00023216   -0.00015084    0.00005857
     atom   11 type  1   force =    -0.00012839    0.00020512   -0.00028715
     atom   12 type  1   force =    -0.00016774   -0.00010359   -0.00021199
     atom   13 type  1   force =     0.00016701    0.00017214   -0.00000695
     atom   14 type  1   force =     0.00022858   -0.00002514    0.00026594
     atom   15 type  1   force =     0.00020700   -0.00013431   -0.00010364
     atom   16 type  1   force =    -0.00027385    0.00012919   -0.00011314
     atom   17 type  1   force =     0.00024891    0.00002389   -0.00029096
     atom   18 type  1   force =     0.00039546   -0.00004724   -0.00003723
     atom   19 type  1   force =    -0.00004686    0.00002873   -0.00010091
     atom   20 type  1   force =    -0.00011875    0.00008793   -0.00010216
     atom   21 type  1   force =    -0.00007933    0.00007725   -0.00005679
     atom   22 type  1   force =     0.00035389   -0.00005198    0.00006712
     atom   23 type  1   force =     0.00016729    0.00002838   -0.00001990
     atom   24 type  1   force =     0.00006670   -0.00004117    0.00007365
     atom   25 type  1   force =     0.00028728    0.00002404   -0.00002501
     atom   26 type  1   force =    -0.00020791   -0.00001480    0.00011769
     atom   27 type  1   force =    -0.00003416   -0.00002774    0.00016565
     atom   28 type  1   force =    -0.00022770    0.00005573   -0.00005119
     atom   29 type  1   force =    -0.00027678   -0.00030173    0.00001806
     atom   30 type  1   force =    -0.00028787    0.00029403    0.00004956
     atom   31 type  2   force =     0.00017583    0.00005396    0.00023125
     atom   32 type  2   force =     0.00010383    0.00004929   -0.00025409
     atom   33 type  2   force =    -0.00025675    0.00021289   -0.00002948
     atom   34 type  3   force =     0.00000100    0.00000971   -0.00001639
     atom   35 type  3   force =     0.00000262   -0.00002146   -0.00000525
     atom   36 type  3   force =    -0.00001621    0.00000283   -0.00003625
     atom   37 type  3   force =    -0.00001100   -0.00000774    0.00001105
     atom   38 type  3   force =    -0.00000261   -0.00000791    0.00000546
     atom   39 type  3   force =     0.00002189    0.00000899    0.00000128
     atom   40 type  3   force =     0.00002677    0.00000800    0.00000396
     atom   41 type  3   force =    -0.00005895   -0.00002882    0.00000169
     atom   42 type  3   force =    -0.00002040    0.00000841    0.00001069
     atom   43 type  3   force =     0.00000033   -0.00000041    0.00000980
     atom   44 type  3   force =    -0.00001093   -0.00002282    0.00003266
     atom   45 type  3   force =     0.00000034   -0.00004282    0.00000293
     atom   46 type  3   force =    -0.00000393    0.00000147    0.00000294
     atom   47 type  3   force =    -0.00000992   -0.00001626    0.00001061
     atom   48 type  3   force =     0.00002395    0.00000705    0.00001585
     atom   49 type  3   force =    -0.00001996    0.00001038    0.00000537
     atom   50 type  3   force =    -0.00004183   -0.00004302    0.00005978
     atom   51 type  3   force =     0.00001716    0.00002800    0.00000032
     atom   52 type  3   force =     0.00005372   -0.00003735    0.00000637
     atom   53 type  3   force =     0.00007410    0.00000692    0.00000649
     atom   54 type  3   force =     0.00001975   -0.00004146   -0.00002857
     atom   55 type  3   force =     0.00006202   -0.00001090    0.00001308
     atom   56 type  3   force =    -0.00002616    0.00000717    0.00004817
     atom   57 type  3   force =    -0.00003488    0.00001048   -0.00004295
     atom   58 type  3   force =     0.00002241   -0.00000043   -0.00001137
     atom   59 type  3   force =    -0.00003193   -0.00002930    0.00000654
     atom   60 type  3   force =    -0.00003631    0.00003531   -0.00001833

     Total force =     0.680646     Total SCF correction =     0.001718

     General routines

     Parallel routines

     PAW routines

   This run was terminated on:  14:22:46  11Dec2023

   JOB DONE.