     Program PWSCF v.7.2 starts on 27Jun2024 at 19:17:37

     Waiting for input...
     Reading input from standard input
Warning: card &CELL ignored
Warning: card / ignored

     Current dimensions of program PWSCF are:
     Max number of different atomic species (ntypx) = 10
     Max number of k-points (npk) =  40000
     Max angular momentum in pseudopotentials (lmaxx) =  4
     Message from routine setup:
     using ibrav=0 with symmetry is DISCOURAGED, use correct ibrav instead

     R & G space division:  proc/nbgrp/npool/nimage =       8
     Subspace diagonalization in iterative solution of the eigenvalue problem:
     a serial algorithm will be used

     Using Slab Decomposition

     bravais-lattice index     =            0
     lattice parameter (alat)  =      11.5718  a.u.
     unit-cell volume          =    6574.1792 (a.u.)^3
     number of atoms/cell      =           24
     number of atomic types    =            2
     number of electrons       =       226.00
     number of Kohn-Sham states=          136
     kinetic-energy cutoff     =      80.0000  Ry
     charge density cutoff     =     320.0000  Ry
     scf convergence threshold =      1.0E-07
     mixing beta               =       0.1000
     number of iterations used =            8  plain     mixing
     Exchange-correlation=  SLA  PW   PBX  PBC
                           (   1   4   3   4   0   0   0)

     celldm(1)=  11.571822  celldm(2)=   0.000000  celldm(3)=   0.000000
     celldm(4)=   0.000000  celldm(5)=   0.000000  celldm(6)=   0.000000

     crystal axes: (cart. coord. in units of alat)
               a(1) = (   0.000000   0.707107   0.707107 )
               a(2) = (   0.707107  -0.707107   0.707107 )
               a(3) = (   2.121320   2.121320  -2.121320 )

     reciprocal axes: (cart. coord. in units 2 pi/alat)
               b(1) = ( -0.000000  0.707107  0.707107 )
               b(2) = (  0.707107 -0.353553  0.353553 )
               b(3) = (  0.235702  0.117851 -0.117851 )

     PseudoPot. # 1 for Mg read from file:
     /nfs/turbo/coe-venkvis/ziqiw-turbo/sssp/mg_pbe_v1.4.uspp.F.UPF
     MD5 check sum: 8ffbd8f729fef71095aac5bd8316fb1f
     Pseudo is Ultrasoft, Zval = 10.0
     Generated by new atomic code, or converted to UPF format
     Using radial grid of  821 points,  7 beta functions with:
                l(1) =   0
                l(2) =   0
                l(3) =   0
                l(4) =   1
                l(5) =   1
                l(6) =   2
                l(7) =   2
     Q(r) pseudized with  8 coefficients,  rinner =    1.200   1.200   1.200
                                                       1.200   1.200

     PseudoPot. # 2 for Li read from file:
     /nfs/turbo/coe-venkvis/ziqiw-turbo/sssp/li_pbe_v1.4.uspp.F.UPF
     MD5 check sum: e912e257baa3777c20ea3d68f190483c
     Pseudo is Ultrasoft, Zval =  3.0
     Generated by new atomic code, or converted to UPF format
     Using radial grid of  751 points,  5 beta functions with:
                l(1) =   0
                l(2) =   0
                l(3) =   0
                l(4) =   1
                l(5) =   1
     Q(r) pseudized with 10 coefficients,  rinner =    1.150   1.150   1.150

     atomic species   valence    mass     pseudopotential
        Mg            10.00    24.30500     Mg( 1.00)
        Li             3.00     6.94000     Li( 1.00)

      4 Sym. Ops., with inversion, found ( 2 have fractional translation)

                                    s                        frac. trans.

      isym =  1     identity

 cryst.   s( 1) = (     1          0          0      )
                  (     0          1          0      )
                  (     0          0          1      )

 cart.    s( 1) = (  1.0000000  0.0000000 -0.0000000 )
                  (  0.0000000  1.0000000 -0.0000000 )
                  ( -0.0000000 -0.0000000  1.0000000 )

      isym =  2     180 deg rotation - cart. axis [0,1,1]

 cryst.   s( 2) = (     1          0          0      )    f =(  0.0000000 )
                  (     0         -1          0      )       ( -0.0000000 )
                  (     0          0         -1      )       (  0.3333333 )

 cart.    s( 2) = ( -1.0000000 -0.0000000  0.0000000 )    f =(  0.7071068 )
                  ( -0.0000000 -0.0000000  1.0000000 )       (  0.7071068 )
                  (  0.0000000  1.0000000 -0.0000000 )       ( -0.7071068 )

      isym =  3     inversion

 cryst.   s( 3) = (    -1          0          0      )    f =( -0.0000000 )
                  (     0         -1          0      )       ( -0.0000000 )
                  (     0          0         -1      )       (  0.3333333 )

 cart.    s( 3) = ( -1.0000000 -0.0000000  0.0000000 )    f =(  0.7071068 )
                  ( -0.0000000 -1.0000000  0.0000000 )       (  0.7071068 )
                  (  0.0000000  0.0000000 -1.0000000 )       ( -0.7071068 )

      isym =  4     inv. 180 deg rotation - cart. axis [0,1,1]

 cryst.   s( 4) = (    -1          0          0      )
                  (     0          1          0      )
                  (     0          0          1      )

 cart.    s( 4) = (  1.0000000  0.0000000 -0.0000000 )
                  (  0.0000000  0.0000000 -1.0000000 )
                  ( -0.0000000 -1.0000000  0.0000000 )

   Cartesian axes

     site n.     atom                  positions (alat units)
         1           Mg  tau(   1) = (   0.0000000   0.0000000   0.0000000  )
         2           Mg  tau(   2) = (   0.3535534  -0.3535534   0.3535534  )
         3           Mg  tau(   3) = (   0.3535534   0.3535534  -0.3535534  )
         4           Mg  tau(   4) = (   0.3535534   0.3535534   0.3535534  )
         5           Mg  tau(   5) = (   0.7071068   0.0000000  -0.0000000  )
         6           Mg  tau(   6) = (   0.7071068  -0.0000000   0.7071068  )
         7           Mg  tau(   7) = (   0.7071068   0.7071068  -0.7071068  )
         8           Mg  tau(   8) = (   0.7071068   0.7071068  -0.0000000  )
         9           Mg  tau(   9) = (   1.0606602   0.3535534  -0.3535534  )
        10           Mg  tau(  10) = (   1.0606602   0.3535534   0.3535534  )
        11           Mg  tau(  11) = (   1.0606602   1.0606602  -1.0606602  )
        12           Mg  tau(  12) = (   1.0606602   1.0606602  -0.3535534  )
        13           Mg  tau(  13) = (   1.4142136   0.7071068  -0.7071068  )
        14           Mg  tau(  14) = (   1.4142136   0.7071068   0.0000000  )
        15           Mg  tau(  15) = (   1.4142136   1.4142136  -1.4142136  )
        16           Mg  tau(  16) = (   1.4142136   1.4142136  -0.7071068  )
        17           Mg  tau(  17) = (   1.7677670   1.0606602  -1.0606602  )
        18           Mg  tau(  18) = (   1.7677670   1.0606602  -0.3535534  )
        19           Mg  tau(  19) = (   1.7677670   1.7677670  -1.7677670  )
        20           Li  tau(  20) = (   1.7677670   1.7677670  -1.0606602  )
        21           Mg  tau(  21) = (   2.1213203   1.4142136  -1.4142136  )
        22           Mg  tau(  22) = (   2.1213203   1.4142136  -0.7071068  )
        23           Mg  tau(  23) = (   2.1213203   2.1213203  -1.4142136  )
        24           Li  tau(  24) = (   2.4748737   1.7677670  -1.0606602  )

   Crystallographic axes

     site n.     atom                  positions (cryst. coord.)
         1           Mg  tau(   1) = (  0.0000000  0.0000000  0.0000000  )
         2           Mg  tau(   2) = ( -0.0000000  0.5000000  0.0000000  )
         3           Mg  tau(   3) = (  0.0000000  0.0000000  0.1666667  )
         4           Mg  tau(   4) = (  0.5000000  0.2500000  0.0833333  )
         5           Mg  tau(   5) = ( -0.0000000  0.5000000  0.1666667  )
         6           Mg  tau(   6) = (  0.5000000  0.7500000  0.0833333  )
         7           Mg  tau(   7) = (  0.0000000  0.0000000  0.3333333  )
         8           Mg  tau(   8) = (  0.5000000  0.2500000  0.2500000  )
         9           Mg  tau(   9) = (  0.0000000  0.5000000  0.3333333  )
        10           Mg  tau(  10) = (  0.5000000  0.7500000  0.2500000  )
        11           Mg  tau(  11) = (  0.0000000  0.0000000  0.5000000  )
        12           Mg  tau(  12) = (  0.5000000  0.2500000  0.4166667  )
        13           Mg  tau(  13) = (  0.0000000  0.5000000  0.5000000  )
        14           Mg  tau(  14) = (  0.5000000  0.7500000  0.4166667  )
        15           Mg  tau(  15) = (  0.0000000  0.0000000  0.6666667  )
        16           Mg  tau(  16) = (  0.5000000  0.2500000  0.5833333  )
        17           Mg  tau(  17) = (  0.0000000  0.5000000  0.6666667  )
        18           Mg  tau(  18) = (  0.5000000  0.7500000  0.5833333  )
        19           Mg  tau(  19) = ( -0.0000000 -0.0000000  0.8333333  )
        20           Li  tau(  20) = (  0.5000000  0.2500000  0.7500000  )
        21           Mg  tau(  21) = (  0.0000000  0.5000000  0.8333333  )
        22           Mg  tau(  22) = (  0.5000000  0.7500000  0.7500000  )
        23           Mg  tau(  23) = (  0.5000000  0.2500000  0.9166667  )
        24           Li  tau(  24) = (  0.5000000  0.7500000  0.9166667  )

     number of k points=    18  Gaussian smearing, width (Ry)=  0.0100
                       cart. coord. in units 2pi/alat
        k(    1) = (   0.0000000   0.0000000   0.0000000), wk =   0.0625000
        k(    2) = (  -0.1178511  -0.0589256   0.0589256), wk =   0.0625000
        k(    3) = (   0.1767767  -0.0883883   0.0883883), wk =   0.1250000
        k(    4) = (   0.0589256  -0.1473139   0.1473139), wk =   0.1250000
        k(    5) = (  -0.3535534   0.1767767  -0.1767767), wk =   0.0625000
        k(    6) = (  -0.4714045   0.1178511  -0.1178511), wk =   0.0625000
        k(    7) = (  -0.0000000   0.1767767   0.1767767), wk =   0.1250000
        k(    8) = (  -0.1178511   0.1178511   0.2357023), wk =   0.1250000
        k(    9) = (   0.1767767   0.0883883   0.2651650), wk =   0.2500000
        k(   10) = (   0.0589256   0.0294628   0.3240906), wk =   0.2500000
        k(   11) = (  -0.3535534   0.3535534   0.0000000), wk =   0.1250000
        k(   12) = (  -0.4714045   0.2946278   0.0589256), wk =   0.1250000
        k(   13) = (   0.0000000  -0.3535534  -0.3535534), wk =   0.0625000
        k(   14) = (  -0.1178511  -0.4124790  -0.2946278), wk =   0.0625000
        k(   15) = (   0.1767767  -0.4419417  -0.2651650), wk =   0.1250000
        k(   16) = (   0.0589256  -0.5008673  -0.2062395), wk =   0.1250000
        k(   17) = (  -0.3535534  -0.1767767  -0.5303301), wk =   0.0625000
        k(   18) = (  -0.4714045  -0.2357023  -0.4714045), wk =   0.0625000

                       cryst. coord.
        k(    1) = (   0.0000000   0.0000000   0.0000000), wk =   0.0625000
        k(    2) = (   0.0000000  -0.0000000  -0.5000000), wk =   0.0625000
        k(    3) = (  -0.0000000   0.2500000   0.0000000), wk =   0.1250000
        k(    4) = (   0.0000000   0.2500000  -0.5000000), wk =   0.1250000
        k(    5) = (   0.0000000  -0.5000000  -0.0000000), wk =   0.0625000
        k(    6) = (  -0.0000000  -0.5000000  -0.5000000), wk =   0.0625000
        k(    7) = (   0.2500000  -0.0000000   0.0000000), wk =   0.1250000
[...]
     0.0000   0.0000   0.0000   0.0000   0.0000   0.0000   0.0000   0.0000
     0.0000   0.0000   0.0000   0.0000   0.0000   0.0000   0.0000   0.0000

     the Fermi energy is     1.6421 ev

!    total energy              =   -2785.12603696 Ry
     estimated scf accuracy    <          9.5E-09 Ry
     smearing contrib. (-TS)   =      -0.01118474 Ry
     internal energy E=F+TS    =   -2785.11485222 Ry

     The total energy is F=E-TS. E is the sum of the following terms:
     one-electron contribution =   -2757.09328726 Ry
     hartree contribution      =    1289.91807065 Ry
     xc contribution           =    -374.48897671 Ry
     ewald contribution        =    -943.45065891 Ry

     convergence has been achieved in  22 iterations

     Forces acting on atoms (cartesian axes, Ry/au):

     atom    1 type  1   force =     0.00309230    0.00016131   -0.00016131
     atom    2 type  1   force =     0.00130021    0.00109038   -0.00109038
     atom    3 type  1   force =     0.00063182    0.00046626   -0.00046626
     atom    4 type  1   force =    -0.00036659   -0.00041792    0.00041792
     atom    5 type  1   force =    -0.00041523   -0.00023264    0.00023264
     atom    6 type  1   force =     0.00070014    0.00122800   -0.00122800
     atom    7 type  1   force =     0.00000000    0.00000000    0.00000000
     atom    8 type  1   force =    -0.00018570   -0.00028929    0.00028929
     atom    9 type  1   force =     0.00000000    0.00000000    0.00000000
     atom   10 type  1   force =    -0.00066045   -0.00030192    0.00030192
     atom   11 type  1   force =    -0.00063182   -0.00046626    0.00046626
     atom   12 type  1   force =     0.00066045    0.00030192   -0.00030192
     atom   13 type  1   force =     0.00041523    0.00023264   -0.00023264
     atom   14 type  1   force =     0.00018570    0.00028929   -0.00028929
     atom   15 type  1   force =    -0.00309230   -0.00016131    0.00016131
     atom   16 type  1   force =    -0.00070014   -0.00122800    0.00122800
     atom   17 type  1   force =    -0.00130021   -0.00109038    0.00109038
     atom   18 type  1   force =     0.00036659    0.00041792   -0.00041792
     atom   19 type  1   force =     0.00000000    0.00000000    0.00000000
     atom   20 type  2   force =    -0.00036358   -0.00013858    0.00013858
     atom   21 type  1   force =     0.00000000    0.00000000    0.00000000
     atom   22 type  1   force =    -0.00144705   -0.00132871    0.00132871
     atom   23 type  1   force =     0.00144705    0.00132871   -0.00132871
     atom   24 type  2   force =     0.00036358    0.00013858   -0.00013858
     The non-local contrib.  to forces
     atom    1 type  1   force =     0.01338741   -0.00141577    0.00141577
     atom    2 type  1   force =     0.00078393   -0.00047287    0.00047287
     atom    3 type  1   force =     0.00024301   -0.00293488    0.00293488
     atom    4 type  1   force =     0.01053422    0.00635703   -0.00635703
     atom    5 type  1   force =     0.00831101    0.00229429   -0.00229429
     atom    6 type  1   force =     0.00993830    0.00711098   -0.00711098
     atom    7 type  1   force =     0.00000000    0.00000000    0.00000000
     atom    8 type  1   force =    -0.00011039    0.00312828   -0.00312828
     atom    9 type  1   force =     0.00000000    0.00000000    0.00000000
     atom   10 type  1   force =     0.00479846    0.00428210   -0.00428210
     atom   11 type  1   force =    -0.00024301    0.00293488   -0.00293488
     atom   12 type  1   force =    -0.00479846   -0.00428210    0.00428210
     atom   13 type  1   force =    -0.00831101   -0.00229429    0.00229429
     atom   14 type  1   force =     0.00011039   -0.00312828    0.00312828
     atom   15 type  1   force =    -0.01338741    0.00141577   -0.00141577
     atom   16 type  1   force =    -0.00993830   -0.00711098    0.00711098
     atom   17 type  1   force =    -0.00078393    0.00047287   -0.00047287
     atom   18 type  1   force =    -0.01053422   -0.00635703    0.00635703
     atom   19 type  1   force =     0.00000000    0.00000000    0.00000000
     atom   20 type  2   force =    -0.00215906   -0.00003718    0.00003718
     atom   21 type  1   force =     0.00000000    0.00000000    0.00000000
     atom   22 type  1   force =    -0.00572374   -0.00533630    0.00533630
     atom   23 type  1   force =     0.00572374    0.00533630   -0.00533630
     atom   24 type  2   force =     0.00215906    0.00003718   -0.00003718
     The ionic contribution  to forces
     atom    1 type  1   force =    -5.45042843   -1.69597703    1.69597703
     atom    2 type  1   force =    -3.75050681   -2.76305969    2.76305969
     atom    3 type  1   force =    -2.97000260   -1.47994102    1.47994102
     atom    4 type  1   force =    -4.58597819   -1.83817484    1.83817484
     atom    5 type  1   force =    -2.79303072   -1.40158082    1.40158082
     atom    6 type  1   force =    -4.57417811   -2.81274658    2.81274658
     atom    7 type  1   force =     0.00000000   -0.00000000   -0.00000000
     atom    8 type  1   force =    -1.49339045   -0.72417493    0.72417493
     atom    9 type  1   force =    -0.00000000   -0.00000000    0.00000000
     atom   10 type  1   force =    -1.43859032   -0.74167476    0.74167476
     atom   11 type  1   force =     2.97000260    1.47994102   -1.47994102
     atom   12 type  1   force =     1.43859032    0.74167476   -0.74167476
     atom   13 type  1   force =     2.79303072    1.40158082   -1.40158082
     atom   14 type  1   force =     1.49339045    0.72417493   -0.72417493
     atom   15 type  1   force =     5.45042843    1.69597703   -1.69597703
     atom   16 type  1   force =     4.57417811    2.81274658   -2.81274658
     atom   17 type  1   force =     3.75050681    2.76305969   -2.76305969
     atom   18 type  1   force =     4.58597819    1.83817484   -1.83817484
     atom   19 type  1   force =    -0.00000000   -0.00000000    0.00000000
     atom   20 type  2   force =     0.94421636    0.32895002   -0.32895002
     atom   21 type  1   force =    -0.00000000   -0.00000000    0.00000000
     atom   22 type  1   force =     3.08078766    2.08857164   -2.08857164
     atom   23 type  1   force =    -3.08078766   -2.08857164    2.08857164
     atom   24 type  2   force =    -0.94421636   -0.32895002    0.32895002
     The local contribution  to forces
     atom    1 type  1   force =     5.44011482    1.69753743   -1.69753743
     atom    2 type  1   force =     3.75107705    2.76463987   -2.76463987
     atom    3 type  1   force =     2.97050574    1.48337129   -1.48337129
     atom    4 type  1   force =     4.57508322    1.83141259   -1.83141259
     atom    5 type  1   force =     2.78432136    1.39908171   -1.39908171
     atom    6 type  1   force =     4.56496108    2.80686643   -2.80686643
     atom    7 type  1   force =     0.00000000    0.00000000   -0.00000000
     atom    8 type  1   force =     1.49325318    0.72074018   -0.72074018
     atom    9 type  1   force =     0.00000000    0.00000000   -0.00000000
     atom   10 type  1   force =     1.43308838    0.73708017   -0.73708017
     atom   11 type  1   force =    -2.97050574   -1.48337129    1.48337129
     atom   12 type  1   force =    -1.43308838   -0.73708017    0.73708017
     atom   13 type  1   force =    -2.78432136   -1.39908171    1.39908171
     atom   14 type  1   force =    -1.49325318   -0.72074018    0.72074018
     atom   15 type  1   force =    -5.44011482   -1.69753743    1.69753743
     atom   16 type  1   force =    -4.56496108   -2.80686643    2.80686643
     atom   17 type  1   force =    -3.75107705   -2.76463987    2.76463987
     atom   18 type  1   force =    -4.57508322   -1.83141259    1.83141259
     atom   19 type  1   force =     0.00000000    0.00000000   -0.00000000
     atom   20 type  2   force =    -0.94241359   -0.32902954    0.32902954
     atom   21 type  1   force =     0.00000000   -0.00000000    0.00000000
     atom   22 type  1   force =    -3.07650628   -2.08459406    2.08459406
     atom   23 type  1   force =     3.07650628    2.08459406   -2.08459406
     atom   24 type  2   force =     0.94241359    0.32902954   -0.32902954
     The core correction contribution to forces
     atom    1 type  1   force =     0.00000000    0.00000000    0.00000000
     atom    2 type  1   force =     0.00000000    0.00000000    0.00000000
     atom    3 type  1   force =     0.00000000    0.00000000    0.00000000
     atom    4 type  1   force =     0.00000000    0.00000000    0.00000000
     atom    5 type  1   force =     0.00000000    0.00000000    0.00000000
     atom    6 type  1   force =     0.00000000    0.00000000    0.00000000
     atom    7 type  1   force =     0.00000000    0.00000000    0.00000000
     atom    8 type  1   force =     0.00000000    0.00000000    0.00000000
     atom    9 type  1   force =     0.00000000    0.00000000    0.00000000
     atom   10 type  1   force =     0.00000000    0.00000000    0.00000000
     atom   11 type  1   force =     0.00000000    0.00000000    0.00000000
     atom   12 type  1   force =     0.00000000    0.00000000    0.00000000
     atom   13 type  1   force =     0.00000000    0.00000000    0.00000000
     atom   14 type  1   force =     0.00000000    0.00000000    0.00000000
     atom   15 type  1   force =     0.00000000    0.00000000    0.00000000
     atom   16 type  1   force =     0.00000000    0.00000000    0.00000000
     atom   17 type  1   force =     0.00000000    0.00000000    0.00000000
     atom   18 type  1   force =     0.00000000    0.00000000    0.00000000
     atom   19 type  1   force =     0.00000000    0.00000000    0.00000000
     atom   20 type  2   force =     0.00000000    0.00000000    0.00000000
     atom   21 type  1   force =     0.00000000    0.00000000    0.00000000
     atom   22 type  1   force =     0.00000000    0.00000000    0.00000000
     atom   23 type  1   force =     0.00000000    0.00000000    0.00000000
     atom   24 type  2   force =     0.00000000    0.00000000    0.00000000
     The Hubbard contrib.    to forces
     atom    1 type  1   force =     0.00000000    0.00000000    0.00000000
     atom    2 type  1   force =     0.00000000    0.00000000    0.00000000
     atom    3 type  1   force =     0.00000000    0.00000000    0.00000000
     atom    4 type  1   force =     0.00000000    0.00000000    0.00000000
     atom    5 type  1   force =     0.00000000    0.00000000    0.00000000
     atom    6 type  1   force =     0.00000000    0.00000000    0.00000000
     atom    7 type  1   force =     0.00000000    0.00000000    0.00000000
     atom    8 type  1   force =     0.00000000    0.00000000    0.00000000
     atom    9 type  1   force =     0.00000000    0.00000000    0.00000000
     atom   10 type  1   force =     0.00000000    0.00000000    0.00000000
     atom   11 type  1   force =     0.00000000    0.00000000    0.00000000
     atom   12 type  1   force =     0.00000000    0.00000000    0.00000000
     atom   13 type  1   force =     0.00000000    0.00000000    0.00000000
     atom   14 type  1   force =     0.00000000    0.00000000    0.00000000
     atom   15 type  1   force =     0.00000000    0.00000000    0.00000000
     atom   16 type  1   force =     0.00000000    0.00000000    0.00000000
     atom   17 type  1   force =     0.00000000    0.00000000    0.00000000
     atom   18 type  1   force =     0.00000000    0.00000000    0.00000000
     atom   19 type  1   force =     0.00000000    0.00000000    0.00000000
     atom   20 type  2   force =     0.00000000    0.00000000    0.00000000
     atom   21 type  1   force =     0.00000000    0.00000000    0.00000000
     atom   22 type  1   force =     0.00000000    0.00000000    0.00000000
     atom   23 type  1   force =     0.00000000    0.00000000    0.00000000
     atom   24 type  2   force =     0.00000000    0.00000000    0.00000000
     The SCF correction term to forces
     atom    1 type  1   force =     0.00001850    0.00001668   -0.00001668
     atom    2 type  1   force =    -0.00005396   -0.00001693    0.00001693
     atom    3 type  1   force =    -0.00011433   -0.00002913    0.00002913
     atom    4 type  1   force =    -0.00000584   -0.00001269    0.00001269
     atom    5 type  1   force =    -0.00001688   -0.00002782    0.00002782
     atom    6 type  1   force =    -0.00002113   -0.00000284    0.00000284
     atom    7 type  1   force =     0.00000000   -0.00000000    0.00000000
     atom    8 type  1   force =     0.00006196    0.00001718   -0.00001718
     atom    9 type  1   force =    -0.00000000   -0.00000000    0.00000000
     atom   10 type  1   force =     0.00004302    0.00001057   -0.00001057
     atom   11 type  1   force =     0.00011433    0.00002913   -0.00002913
     atom   12 type  1   force =    -0.00004302   -0.00001057    0.00001057
     atom   13 type  1   force =     0.00001688    0.00002782   -0.00002782
     atom   14 type  1   force =    -0.00006196   -0.00001718    0.00001718
     atom   15 type  1   force =    -0.00001850   -0.00001668    0.00001668
     atom   16 type  1   force =     0.00002113    0.00000284   -0.00000284
     atom   17 type  1   force =     0.00005396    0.00001693   -0.00001693
     atom   18 type  1   force =     0.00000584    0.00001269   -0.00001269
     atom   19 type  1   force =    -0.00000000    0.00000000    0.00000000
     atom   20 type  2   force =    -0.00000730   -0.00002189    0.00002189
     atom   21 type  1   force =    -0.00000000   -0.00000000   -0.00000000
     atom   22 type  1   force =    -0.00000469    0.00003001   -0.00003001
     atom   23 type  1   force =     0.00000469   -0.00003001    0.00003001
     atom   24 type  2   force =     0.00000730    0.00002189   -0.00002189

     Total force =     0.007128     Total SCF correction =     0.000250

     Computing stress (Cartesian axis) and pressure

          total   stress  (Ry/bohr**3)                   (kbar)     P=      -52.49
  -0.00036586  -0.00000316   0.00000316          -53.82       -0.46        0.46
  -0.00000316  -0.00035228   0.00001090           -0.46      -51.82        1.60
   0.00000316   0.00001090  -0.00035228            0.46        1.60      -51.82

     kinetic stress (kbar)   5237.52     -0.35      0.35
                               -0.35   5239.36      1.50
                                0.35      1.50   5239.36

     local   stress (kbar)  -6786.99    680.90   -680.90
                              680.90  -7626.51   -392.81
                             -680.90   -392.81  -7626.51

     nonloc. stress (kbar)   2155.15      0.03     -0.03
                                0.03   2155.28      0.07
                               -0.03      0.07   2155.28

     hartree stress (kbar)   9340.31   -338.47    338.47
                             -338.47   9761.57    194.83
                              338.47    194.83   9761.57

     exc-cor stress (kbar)  -2684.01      0.00     -0.00
                                0.00  -2684.01     -0.00
                               -0.00     -0.00  -2684.01

     corecor stress (kbar)      0.00      0.00      0.00
                                0.00      0.00      0.00
                                0.00      0.00      0.00

     ewald   stress (kbar)  -7315.79   -342.57    342.57
                             -342.57  -6897.52    198.02
                              342.57    198.02  -6897.52

     hubbard stress (kbar)      0.00      0.00      0.00
                                0.00      0.00      0.00
                                0.00      0.00      0.00

     DFT-D   stress (kbar)      0.00      0.00      0.00
                                0.00      0.00      0.00
                                0.00      0.00      0.00

     XDM     stress (kbar)      0.00      0.00      0.00
                                0.00      0.00      0.00
                                0.00      0.00      0.00

     dft-nl  stress (kbar)      0.00      0.00      0.00
                                0.00      0.00      0.00
                                0.00      0.00      0.00

     TS-vdW  stress (kbar)      0.00      0.00      0.00
                                0.00      0.00      0.00
                                0.00      0.00      0.00

     MDB     stress (kbar)      0.00      0.00      0.00
                                0.00      0.00      0.00
                                0.00      0.00      0.00

     3D-RISM stress (kbar)      0.00      0.00      0.00
                                0.00      0.00      0.00
                                0.00      0.00      0.00

     General routines

     Parallel routines

   This run was terminated on:  19:37:28  27Jun2024

   JOB DONE.